PARAMETER_FILE = even/LKH_uncomplete_graph/x10/seg/par/random86.par
PROBLEM_FILE = even/LKH_uncomplete_graph/x10/seg/mat/random86.tsp
Successes/Runs = 0/10
Cost.min = 727, Cost.avg = 727.00, Cost.max = 727
Gap.min = 0.0000%, Gap.avg = 0.0000%, Gap.max = 0.0000%
Trials.min = 1000, Trials.avg = 1000.0, Trials.max = 1000
Time.min = 1.06 sec., Time.avg = 1.90 sec., Time.max = 3.24 sec.
Time.total = 19.07 sec.
请按任意键继续. . . 
